NAME : instances/20-120-tsp/instance-21.tsp
COMMENT : No Comment
TYPE : TSP
DIMENSION: 21
EDGE_WEIGHT_TYPE : EUC_2D
NODE_COORD_SECTION
1 3372 933 
2 5641 5138 
3 238 1396 
4 273 1167 
5 2649 1158 
6 2347 5373 
7 3462 2132 
8 7752 3602 
9 4024 3147 
10 6279 4547 
11 9861 8335 
12 7334 5688 
13 6873 8162 
14 70 8827 
15 7288 820 
16 4501 6681 
17 1738 8676 
18 1953 6925 
19 1482 8086 
20 7913 6090 
21 4061 2351 
EOF
